NAME : instance_19_700
TYPE : TSP
DIMENSION : 19
EDGE_WEIGHT_TYPE : EUC_2D
LOWER : 0
UPPER : 100
NODE_COORD_SECTION
1 97.1937702969 66.0965839401
2 24.1784356534 78.6924826913
3 60.0993713131 4.3145169504
4 14.6758136339 43.6678441241
5 85.1387249539 81.1233569635
6 98.524820921 73.8224036759
7 49.6032464318 72.8726534173
8 12.0122032706 96.0830396507
9 14.7929610452 74.7934763553
10 34.6747116651 19.4070002064
11 59.1102781938 41.5633502183
12 25.0469716964 15.8593962668
13 6.5616994165 19.4062286755
14 49.2955418304 73.7526417244
15 76.2479244033 66.327063879
16 28.5544806393 39.9598326767
17 17.686028895 46.2493089493
18 82.17172164 72.9830523254
19 39.5276862429 53.4036913654
EOF
